PROBLEM NAME: eil51_n11
KNAPSACK DATA TYPE: multiple strongly correlated
DIMENSION: 11
NUMBER OF ITEMS: 50
CAPACITY OF KNAPSACK: 14016
MIN SPEED: 0.1
MAX SPEED: 1
RENTING RATIO: 36.83
EDGE_WEIGHT_TYPE: CEIL_2D
NODE_COORD_SECTION	(INDEX, X, Y):
1	37	52
2	31	62
3	31	32
4	52	41
5	13	13
6	62	42
7	42	57
8	37	69
9	32	22
10	56	37
11	30	40
ITEMS SECTION	(INDEX, PROFIT, WEIGHT, ASSIGNED NODE NUMBER):
1	1179	979	2
2	1128	928	2
3	1115	915	2
4	1092	792	2
5	1086	786	2
6	1061	861	8
7	1048	848	8
8	1014	714	8
9	1014	814	8
10	1013	813	8
11	990	790	7
12	989	789	7
13	973	773	7
14	953	753	7
15	952	752	7
16	948	748	6
17	910	710	6
18	882	682	6
19	852	652	6
20	847	647	6
21	805	605	10
22	785	585	10
23	775	575	10
24	768	568	10
25	760	560	10
26	759	559	4
27	688	488	4
28	677	477	4
29	593	393	4
30	586	386	4
31	574	374	9
32	573	373	9
33	564	364	9
34	564	264	9
35	563	363	9
36	555	355	5
37	553	353	5
38	534	234	5
39	513	313	5
40	445	245	5
41	442	242	3
42	429	229	3
43	425	225	3
44	417	217	3
45	355	155	3
46	312	112	11
47	311	111	11
48	306	106	11
49	270	70	11
50	250	50	11
